(set-info :smt-lib-version 2.6)
(set-logic UF)
(set-info :source |Benchmarks from the paper: "Extending Sledgehammer with SMT Solvers" by Jasmin Blanchette, Sascha Bohme, and Lawrence C. Paulson, CADE 2011.  Translated to SMT2 by Andrew Reynolds and Morgan Deters.|)
(set-info :category "industrial")
(set-info :status sat)
(declare-sort S1 0)
(declare-sort S2 0)
(declare-sort S3 0)
(declare-sort S4 0)
(declare-sort S5 0)
(declare-sort S6 0)
(declare-sort S7 0)
(declare-sort S8 0)
(declare-sort S9 0)
(declare-fun f1 () S1)
(declare-fun f2 () S1)
(declare-fun f3 (S4 S3) S3)
(declare-fun f4 (S5 S3) S4)
(declare-fun f5 (S6 S2) S5)
(declare-fun f6 () S6)
(declare-fun f7 () S5)
(declare-fun f8 (S7 S2) S4)
(declare-fun f9 () S7)
(declare-fun f10 () S2)
(declare-fun f11 () S7)
(declare-fun f12 (S8 S6) S4)
(declare-fun f13 (S9 S3) S8)
(declare-fun f14 () S9)
(declare-fun f15 () S3)
(assert (not (= f1 f2)))
(assert (forall ((?v0 S2) (?v1 S3) (?v2 S3)) (= (f3 (f4 (f5 f6 ?v0) ?v1) ?v2) (f3 (f4 f7 (f3 (f8 f9 f10) ?v2)) (f3 (f8 f11 ?v0) ?v2)))))
(assert (not (= (f3 (f12 (f13 f14 f15) f6) f15) f15)))
(assert (forall ((?v0 S2)) (= (f3 (f8 f9 ?v0) f15) f15)))
(assert (forall ((?v0 S3)) (= (f3 (f4 f7 ?v0) f15) ?v0)))
(assert (forall ((?v0 S3) (?v1 S6) (?v2 S2) (?v3 S3)) (let ((?v_0 (f12 (f13 f14 ?v0) ?v1))) (= (f3 ?v_0 (f3 (f8 f11 ?v2) ?v3)) (f3 (f4 (f5 ?v1 ?v2) ?v3) (ite (= ?v3 f15) ?v0 (f3 ?v_0 ?v3)))))))
(check-sat)
(exit)
